20 380
0 1 49.5
0 2 46.6
0 3 35.3
0 4 63.6
0 5 67.8
0 6 39.5
0 7 26.1
0 8 59.2
0 9 42.8
0 10 4.0
0 11 11.8
0 12 23.6
0 13 19.0
0 14 40.0
0 15 48.5
0 16 16.6
0 17 5.5
0 18 36.9
0 19 52.3
1 2 24.4
1 3 42.2
1 4 77.1
1 5 24.9
1 6 25.9
1 7 23.4
1 8 57.3
1 9 7.2
1 10 47.8
1 11 59.2
1 12 73.0
1 13 67.9
1 14 32.1
1 15 16.0
1 16 39.0
1 17 48.0
1 18 36.8
1 19 56.2
2 3 22.4
2 4 93.0
2 5 48.8
2 6 7.3
2 7 28.0
2 8 76.7
2 9 20.3
2 10 43.4
2 11 58.3
2 12 67.4
2 13 65.3
2 14 10.7
2 15 8.9
2 16 30.8
2 17 48.0
2 18 16.5
2 19 73.7
3 4 93.9
3 5 67.0
3 6 17.0
3 7 31.4
3 8 82.6
3 9 35.7
3 10 31.4
3 11 46.7
3 12 50.8
3 13 51.4
3 14 11.7
3 15 30.1
3 16 19.7
3 17 39.0
3 18 6.0
3 19 77.7
4 5 73.9
4 6 88.5
4 7 65.6
4 8 23.9
4 9 75.7
4 10 67.0
4 11 57.9
4 12 71.6
4 13 62.4
4 14 92.7
4 15 88.7
4 16 74.9
4 17 58.2
4 18 92.7
4 19 21.3
5 6 50.8
5 7 43.0
5 8 50.5
5 9 31.3
5 10 67.2
5 11 75.2
5 12 91.1
5 13 84.3
5 14 57.0
5 15 39.9
5 16 61.1
5 17 64.8
5 18 61.6
5 19 52.9
6 7 22.9
6 8 73.6
6 9 20.1
6 10 36.2
6 11 51.2
6 12 60.1
6 13 58.1
6 14 6.3
6 15 13.2
6 16 23.5
6 17 41.1
6 18 11.2
6 19 69.9
7 8 51.6
7 9 17.0
7 10 24.8
7 11 35.9
7 12 49.7
7 13 44.5
7 14 27.3
7 15 25.9
7 16 18.6
7 17 24.7
7 18 28.4
7 19 47.4
8 9 57.5
8 10 61.6
8 11 58.0
8 12 74.5
8 13 65.2
8 14 78.7
8 15 70.9
8 16 65.6
8 17 53.7
8 18 80.0
8 19 7.9
9 10 40.9
9 11 52.9
9 12 66.2
9 13 61.4
9 14 26.3
9 15 13.4
9 16 31.7
9 17 41.7
9 18 30.5
9 19 55.4
10 11 15.5
10 12 25.3
10 13 21.9
10 14 36.4
10 15 45.8
10 16 12.9
10 17 8.8
10 18 33.1
10 19 54.9
11 12 17.1
11 13 9.1
11 14 51.8
11 15 59.7
11 16 28.3
11 17 11.2
11 18 48.6
11 19 50.4
12 13 9.4
12 14 58.9
12 15 70.7
12 16 36.8
12 17 26.3
12 18 54.5
12 19 66.7
13 14 57.9
13 15 67.5
13 16 34.7
13 17 19.9
13 18 54.1
13 19 57.4
14 15 18.6
14 16 23.4
14 17 42.3
14 18 5.8
14 19 74.7
15 16 34.0
15 17 48.8
15 18 24.1
15 19 68.6
16 17 19.5
16 18 20.4
16 19 59.9
17 18 39.9
17 19 46.8
18 19 75.5
